NAME : pr439
TYPE : OP
DIMENSION : 439
COST_LIMIT : 53609
ROUTE_NODES : 310
ROUTE_SCORE : 310
ROUTE_COST : 53560
NODE_SEQUENCE_SECTION
1
4
5
6
7
8
9
10
11
12
13
14
15
16
17
33
34
35
36
37
57
58
78
86
87
77
59
60
61
62
31
30
29
28
27
26
25
23
21
22
24
65
66
67
68
69
70
91
90
89
71
72
88
107
106
105
104
113
114
116
118
119
121
122
120
117
115
103
102
92
93
94
100
95
96
98
99
125
123
124
126
127
129
128
130
131
132
133
167
165
164
166
169
168
170
171
172
173
174
204
176
175
161
162
163
134
135
136
137
138
139
140
141
142
152
143
150
151
153
154
155
156
157
158
159
177
178
179
180
181
182
183
192
193
194
195
196
197
198
199
200
201
202
203
205
206
207
208
209
253
251
250
210
211
212
213
214
215
216
217
218
219
220
221
222
233
234
235
236
237
238
239
240
241
242
243
244
245
246
247
248
249
252
255
256
257
258
259
260
261
262
263
264
307
308
309
310
311
312
313
314
315
316
318
319
320
321
322
323
324
325
326
327
328
329
331
330
303
302
304
305
306
265
266
267
268
269
270
271
272
273
274
275
276
277
278
279
294
295
296
297
298
299
300
333
334
335
336
337
338
339
360
361
362
363
364
365
366
367
368
369
370
359
357
358
356
355
354
352
353
351
350
349
348
346
345
347
289
288
287
286
285
280
232
231
225
188
53
54
55
56
82
81
80
79
38
39
40
41
43
45
46
49
47
48
50
51
52
2
3
-1
DEPOT_SECTION
1
-1
EOF
